L=18;
no=8;
njo=[7,8,9,9,7,8,7,8];
djo=[10,11,14,15,11,15,14,14];
trab=[2,6,6,6,4,3,2,3,3,2,3,6,4,2,6,2,12,4,3,2,6,2,6,2,6,2,2,3,3,3,3,2,12,12,6,3,3,6,3,3,2,3,6,2,4,3,2,6,2,3,2,12,2,6,12,6,3,2,3,3,3,2,12,3,4,2,3,6,3,3,3,6,2,2,6,6,2,6,2,4,3,3,12,4,2,2,18,6,4,6,6,2,2,3,6,18,18,3,6,2,3,6,3,3];
nprec=16;
prec=[| 2, 13,
      | 3, 14,
      | 4, 15,
      | 11, 20,
      | 12, 24,
      | 19, 32,
      | 22, 33,
      | 27, 38,
      | 28, 39,
      | 30, 40,
      | 38, 43,
      | 39, 47,
      | 45, 50,
      | 47, 51,
      | 48, 53,
      | 50, 56 |];


%%%%%%%%%%%%%%%%%%%%%%%%%%%%%%%%%%%%%%%%%%%%%%%%%%%%%%%%%%%%%%%%%%%%%%
%  8
%
%  7   1   7  10  37
%  2   6   6   6   4   3   2   3   3   2 
%  1   1   1   0   0
%  1   2   2   0   1
%      2   6  13
%  1   3   3   0   1
%      2   7  14
%  1   4   4   0   1
%      2   8  15
%  1   5   5   0   0
%  1   6   6   0   0
%  1   7   7   0   0
%
%  8   8  15  11  50
%  3   6   4   2   6   2  12   4   3   2   6 
%  2   1   8   0   0
%  2   2   9   0   0
%  2   3  10   0   0
%  2   4  11   0   1
%      3   5  20
%  2   5  12   0   1
%      3   9  24
%  2   6  13   1   0
%      1   2   2
%  2   7  14   1   0
%      1   3   3
%  2   8  15   1   0
%      1   4   4
%
%  9  16  24  14  64
%  2   6   2   6   2   2   3   3   3   3   2  12  12   6 
%  3   1  16   0   0
%  3   2  17   0   0
%  3   3  18   0   0
%  3   4  19   0   1
%      4   8  32
%  3   5  20   1   0
%      2   4  11
%  3   6  21   0   0
%  3   7  22   0   1
%      4   9  33
%  3   8  23   0   0
%  3   9  24   1   0
%      2   5  12
%
%  9  25  33  15  51
%  3   3   6   3   3   2   3   6   2   4   3   2   6   2   3 
%  4   1  25   0   0
%  4   2  26   0   0
%  4   3  27   0   1
%      5   5  38
%  4   4  28   0   1
%      5   6  39
%  4   5  29   0   0
%  4   6  30   0   1
%      5   7  40
%  4   7  31   0   0
%  4   8  32   1   0
%      3   4  19
%  4   9  33   1   0
%      3   7  22
%
%  7  34  40  11  54
%  2  12   2   6  12   6   3   2   3   3   3 
%  5   1  34   0   0
%  5   2  35   0   0
%  5   3  36   0   0
%  5   4  37   0   0
%  5   5  38   1   1
%      4   3  27
%      6   3  43
%  5   6  39   1   1
%      4   4  28
%      6   7  47
%  5   7  40   1   0
%      4   6  30
%
%  8  41  48  15  63
%  2  12   3   4   2   3   6   3   3   3   6   2   2   6   6 
%  6   1  41   0   0
%  6   2  42   0   0
%  6   3  43   1   0
%      5   5  38
%  6   4  44   0   0
%  6   5  45   0   1
%      7   2  50
%  6   6  46   0   0
%  6   7  47   1   1
%      5   6  39
%      7   3  51
%  6   8  48   0   1
%      7   5  53
%
%  7  49  55  14  74
%  2   6   2   4   3   3  12   4   2   2  18   6   4   6 
%  7   1  49   0   0
%  7   2  50   1   1
%      6   5  45
%      8   1  56
%  7   3  51   1   0
%      6   7  47
%  7   4  52   0   0
%  7   5  53   1   0
%      6   8  48
%  7   6  54   0   0
%  7   7  55   0   0
%
%  8  56  63  14  81
%  6   2   2   3   6  18  18   3   6   2   3   6   3   3 
%  8   1  56   1   0
%      7   2  50
%  8   2  57   0   0
%  8   3  58   0   0
%  8   4  59   0   0
%  8   5  60   0   0
%  8   6  61   0   0
%  8   7  62   0   0
%  8   8  63   0   0
%
%227
